peakDumbCharging = 18500; 
Machine = anon_enum(16); 
machineSpeed = [3700,3700,3700,3700,3700,3700,3700,3700,3700,3700,3700,3700,3700,3700,3700,3700]; 
machineLoad = [3700,3700,3700,3700,3700,3700,3700,3700,3700,3700,3700,3700,3700,3700,3700,3700]; 
Car = anon_enum(26); 
demandCar = [1880,7960,18240,7400,9360,12960,4520,2600,800,19680,1840,2520,7000,1960,13760,7240,7240,4600,11720,8960,3280,11360,17880,15560,30600,30440]; 
arrivalCar = [78,75,73,69,67,66,65,64,63,62,59,59,59,58,56,55,51,48,46,37,35,31,28,27,26,25]; 
departureCar = [80,80,80,73,71,71,67,66,64,69,62,62,62,60,63,60,55,52,55,44,38,38,59,33,59,42]; 
